M+/Instances/S2-10-M+/S2-15-10-2-l-M+.txt
     200      10    0.15
       2       1       2       1       3       2       1       2       1       2       0      15      11       2       4       2       7      16      15       5       5
       1       3       1       1       1       2       1       2       1       1      16       5       2       4       5      14       9       2      12       7       4
       1       1       2       2       1       1       2       1       2       3      13       8       9      14       3      13      13      12       5       4       5
       1       2       1       2       1       2       1       2       3       1      16      14      12      12      10       5      16      15       4       3       5
       1       2       1       3       1       1       1       2       2       2       6      16      12       5       8       1       3      11      13       0       7
       2       2       1       3       1       1       1       3       3       2       1       0       4       6      11      15       7      13      13       5       4
       3       1       3       1       1       2       2       2       1       3       0      10       5       4      11       5       5       5       6       0       4
       3       3       1       3       3       3       2       1       2       1       5       3       3       6      13       0       4       6      15      14       7
       2       2       3       2       1       1       2       2       1       2       3       0       4       7       0      16      11      15      13      14       6
       3       1       1       2       3       2       3       2       2       3       3       6      15      10       7       7      10       8       1       8       4
       1       1       1       2       2       3       3       1       1       2      11      13       7       4       4       1      11       4       4       3       6
       1       3       2       1       3       2       1       1       3       1      14      13      16       4      13      10       6       8       6       6       6
       1       3       2       1       3       3       2       3       3       3      11       4      14      16       9       0       4      15       3       5       7
       3       1       3       2       2       1       2       3       2       3       8      11       7       2       4       1       1       6       0      15       5
       3       2       2       2       1       1       1       2       3       1      10       4       2       5       0      12       3       1      16       0       7
       1       3       2       1       2       2       2       3       1       1      14      10       8      10       1      15       9       8       6      12       5
       1       2       2       3       3       1       2       3       3       3       4       9       2       4       2      14      13       4       2       9       4
       2       1       1       2       2       1       2       3       2       3       3      12       5      11       7       5       6       7       2       8       4
       1       1       3       1       2       1       2       2       3       2       5      12       0      11      16       4       8       6      14       9       7
       1       2       3       3       1       1       1       1       2       2      15       4      15       1       5       1       4       2       7       7       4
       2       2       1       2       2       3       2       2       1       3       3      12      15      15       3      12      12      11       0      15       5
       1       3       3       3       2       1       2       3       1       3       4       8       3       9      12      16       5       1       7       4       4
       1       2       3       2       1       3       3       2       3       3       8       8      16       6       6       8       4      15      10       4       5
       2       2       3       1       1       3       2       2       2       1      14      11       6       0       6       9       0       7      14      14       7
       2       3       1       2       1       2       3       3       1       3      12       5      16       3      11      16       7      12       7       0       4
       2       1       2       2       3       3       3       1       3       1      11       4       7       5      14      11      16      12      10      16       6
       2       2       3       3       3       3       3       3       3       3       9      11      14       8       5      11       4      11       2       4       6
       3       1       3       2       2       2       1       3       2       2       3       7       4      14      13       9      12       0      13      14       4
       2       3       1       2       2       1       3       2       2       1      10      12      15      12       6       0       5       2       5      15       6
       2       1       1       1       1       3       2       2       2       2      13       5       1       1      15       1       1       9       9       7       6
       3       1       2       1       2       2       3       2       3       2       2      10       7       7       3      13      10       6      16       0       4
       3       2       1       2       3       2       2       1       1       1       5       0      10       3      10       7      15      16       9       3       4
       1       2       3       2       3       3       2       2       2       2       1      10      15      16       4      16      10       0       7       1       5
       2       1       3       3       1       3       3       2       3       3      11      15      16       2      10       3      15       0       6      14       7
       2       3       2       1       1       1       2       1       3       2       6      12       8      16       4       0      11      12       8      12       6
       2       2       1       2       1       2       3       3       1       1       0       8      14       3       6      13      16      12      14      11       7
       1       2       2       2       2       3       1       1       3       3      11      12      13      11       5       4       6       7       4      14       4
       1       1       2       3       1       3       2       2       1       3       0       2       4       6       3      12      11       5      15      16       5
       2       3       2       2       2       2       1       1       2       2      15      13       5      10       2       3       1      12       2       8       4
       1       3       2       3       2       1       2       3       2       1       0      15       7       0      16       6      15      13       8       7       6
       2       1       2       2       3       1       1       3       1       1       3      10       1      11       5       0       2       0       1       2       5
       2       3       2       2       3       2       1       2       1       1       0       6      13       8      13      11      16       8       0       5       4
       3       2       3       3       1       3       2       1       2       3      15       6       8       5       6       5       7      10       9      15       7
       3       1       2       3       3       1       2       3       1       1      14      15       8      14       2       1       4       5      14       4       5
       3       3       1       3       1       1       3       3       3       3      10       7       1       6       5       0       5      16       7      13       6
       1       1       2       3       2       2       1       2       2       2      15       7       2      12       6       0      14       0      16       5       5
       1       2       3       3       2       3       1       2       3       3      13      12       6       1       4      14      14       4       3       9       7
       3       1       1       1       2       3       1       1       1       3       6       6       1      16      12       6      12       4       5      13       5
       2       3       2       3       3       3       2       2       2       1       2       9      10      11       8      11      12       8       5       7       6
       3       3       1       1       3       3       2       2       3       1      11       7       9       4      15       1      14       0       3       1       5
       3       1       3       3       3       2       2       1       2       2      14      12       0       1      12      12       6      10      12      15       7
       2       2       3       2       1       2       1       2       1       3      10      13      11      16       7       2      11      11       0      12       7
       2       2       3       3       2       2       3       3       2       1       9       5       1       4      15       6       3       7       1      15       5
       2       3       1       3       3       3       1       3       2       1       7      12       3       0      13       6       1      15       8       7       6
       3       1       1       3       3       3       2       3       3       1      10      14       5       6       4       3       7      14      11      12       5
       2       1       3       1       3       2       1       1       2       2       2       6      10       6      16      15       2      11       3       1       6
       1       2       3       2       2       2       1       3       1       1       2       2      15       7      13       3       9      11       3       9       5
       3       1       3       2       3       3       2       1       3       1      15      15       4       8      15      16       8      13      12       6       5
       1       3       3       1       3       1       1       3       2       1      10       2       4      16       0       8      11       9       0       7       6
       1       3       1       1       3       3       1       1       1       1      16       9      10      11      15      12       5       3      10       5       7
       2       3       1       1       2       2       2       1       2       1       5       2       6      13       4      15       5       2       7      15       7
       1       3       2       1       1       2       1       1       2       3       1       6      14       6      14       3       0       6      11       5       7
       2       1       2       1       3       2       2       1       1       1       4       3      12      10       3       6       4       3       9      15       4
       1       1       2       3       1       2       3       3       2       1      15       4       5       2      15      15       3       5       9       4       6
       1       1       1       1       3       1       3       2       1       2       8       0       9      16       1      10       9       7      14       6       7
       2       1       1       1       2       1       1       3       2       3       8       6       2      15      14      12       6       5       1       9       7
       3       2       1       1       1       1       2       2       2       1      15       1       1       7      10       8      14       7       4       9       7
       3       3       1       3       1       2       1       2       2       1      11       2       2       5       0       1      14       5       5       3       6
       3       1       3       3       2       1       3       2       2       2      13      16      13       9       2      16       7       1       6       3       4
       1       2       1       1       1       3       1       3       2       1      16      12       2       9       5      16       2      14       6       1       4
       3       2       3       1       2       1       3       2       2       2       1       7      14       5       8       1       3      13      16       9       5
       1       1       2       2       2       1       3       3       1       3      12       3      12       8      10       5       0      11      16       5       5
       2       2       1       1       3       2       2       1       1       2       3       3       5       4       2       9       0      11       4       3       7
       2       3       3       2       2       2       3       1       2       3       7       6      16      14      15       6      12       2      10       7       5
       2       3       2       1       3       1       1       2       3       1       3      12      12      12       4       0       6       7      15       5       5
       3       2       1       3       1       2       1       2       2       2       8       2      12       3       6       0      14       7       4      16       5
       3       2       1       1       3       3       3       3       3       1       7      11       5       3       7       6       5      11      14       1       4
       2       1       1       1       1       2       3       1       1       3       2       9       2       3       6       0      14      13      11      10       5
       1       2       2       1       1       3       3       3       2       2      13      12      11      12       2       2       4       4       9      11       5
       1       3       1       2       2       2       3       3       2       3      11       2      14      14       2      16       9       9      12      13       7
       2       2       3       1       3       2       2       1       1       1       9       3       6      10      12       7       0      15       1      10       5
       3       1       1       2       3       1       1       2       3       2      15      14       8      14      14      12       8       2       2       2       7
       2       3       2       2       2       1       3       3       3       2       7       8       8       7       0      16      11       6      16       3       7
       1       2       3       1       3       3       2       2       1       3      15       1       9       7       0       1      16       4      14       7       5
       3       1       2       2       3       1       2       3       2       3      13      15       3       1       7       3       2      10      16      15       6
       3       1       3       2       2       2       2       1       1       2      11       1       0       7       3      11       5       5      13       5       6
       2       3       3       1       1       1       3       1       2       2      13      11       1       2      15       1       6      10       7      14       5
       1       3       3       2       3       3       2       2       3       1       5       1      12       8       8      14       5       9       6       2       5
       3       1       3       2       2       2       3       2       3       3      11      15      15      13       1       1       4       7      12      10       6
       3       3       3       2       1       3       3       1       2       1       3      16      11      12       2       2       8      15       8       9       4
       1       2       3       3       1       1       1       2       3       1       2       3       3       4      12      16      16       6      10       8       4
       1       2       3       1       1       3       2       1       3       1       5       1       9       9       3       7      13       4       5      11       6
       1       2       3       3       1       2       2       1       1       2      14      12       9       0      15       8      13       1      14       6       5
       1       2       3       1       3       1       3       3       3       1      15      15      10       4       5      16       9      12       9      14       5
       3       2       3       3       1       3       2       2       2       1      12      16       1      12       0       5      11       5      11       5       7
       2       3       2       2       1       3       3       1       1       2       9       5       0       9      13       1       0       3       2       7       5
       1       1       2       3       1       2       3       2       1       1       9       5       0       1       7      11      11       7      14       6       5
       3       3       3       1       1       3       3       3       3       2      16       6       3      12       6      16       0      10      14      14       6
       3       1       2       2       3       3       3       3       2       2      11      13      16       7      12      11       3       1      16       5       4
       2       1       1       2       2       3       3       3       3       1      10       6       4       0       8      13      12       8      10      15       5
       1       3       3       1       1       2       1       1       3       2       1       2       7       5      10      12       7       7       9      16       5
       1       1       2       1       3       2       3       2       2       1       3       1      15       5       3       0       2      14       7       0       7
       2       2       3       2       2       2       3       1       2       1       7       4      12       9      11      15       1       3       7       6       6
       2       1       3       3       2       3       2       3       3       2       1       3      10      12       1      14       1      10       6       6       6
       2       2       1       1       1       2       2       3       2       1       5      15      13      14      14       3      14      14       5       8       4
       1       1       1       3       1       2       1       3       2       2      11       2      10      15      14       0      10       6       8       8       5
       1       2       2       1       1       1       3       3       3       1      10       6      12      15       7      14       7       4       7       0       4
       3       3       2       3       2       3       1       2       2       1      14      13       2      13       8       2       1       8       6       3       5
       1       3       3       2       2       1       2       2       3       3      13      10       0      13       0       2       8       3       6      14       6
       3       1       3       3       2       2       3       2       2       3      12      14       4      14       1      12       7       7       1      10       7
       1       2       1       3       2       3       3       1       2       2       2       9       4       7      11       6       8       4      15      14       6
       1       1       2       3       3       3       1       2       1       1      11       4      14      12       4      12       7       8       9       2       6
       2       2       1       3       2       1       1       3       3       2       5       8      12       2      16       1       6       2       7       5       5
       1       3       1       3       2       3       3       1       1       1       4      10       9       8      12       5       5       1      16       1       4
       3       1       2       1       3       2       2       3       2       3       8       1      11       4      13       3       2      12       7      11       6
       1       2       2       3       3       3       2       3       3       3      10      13       0      14      14      14      15      11       4       0       6
       1       2       2       1       3       3       3       1       1       2       1       2       1       9       3      10      15       4      12       0       6
       3       1       3       1       3       3       2       2       1       1       3       2      16       4       0      14       7      10       2       6       5
       1       3       1       1       1       2       1       1       2       1      12       7       6       2      14      14       6       1      13      10       5
       1       2       3       2       1       3       1       3       2       2       9       5      14      12      15       3      16       6      10       1       4
       1       2       1       3       2       1       1       1       1       2      13      16       2      14       2       7       6      11       0       1       5
       1       3       1       2       2       3       1       3       3       1      12      14      12      16       7       6       8       5      11       7       7
       2       1       1       2       3       3       2       2       3       1       3       5       2       0       5      12      12      14      14       7       7
       1       2       1       1       2       2       1       1       3       1      12      12      14       2      13       8       9       8       4       4       5
       2       3       1       1       3       2       1       3       2       1      16      11       0      16       5       4       0      12      10       1       6
       1       3       1       2       2       3       3       1       3       2       3       0       0      15      16      13      15       9       2      11       4
       3       1       2       2       1       3       1       3       3       2       1       8       8      15       8      16       8       5      12      16       4
       3       2       3       2       3       3       2       1       2       3       8       4      14       1       9       7       2       6       5       0       6
       1       1       1       1       3       3       3       1       2       1       0       5       0      12       6      13       1      16       5       8       5
       3       2       2       1       3       3       1       1       2       1      15       1       8       2       8      13       8      14      12      13       6
       2       2       3       2       1       3       2       1       1       3       3      13      15       0       4       0       0      16       1       4       4
       3       1       2       1       2       3       2       2       1       2      12       4       0       3       0       5      12       2      16      15       5
       2       2       2       2       2       2       3       2       2       1       2       4       0      14       0       2       5       6       3       3       5
       2       1       3       3       3       1       2       3       2       2       8       7       0      16       5      14       4       8       4       5       4
       1       2       2       2       2       1       2       3       2       2       3      16       8       9       3      15       7      14       4      14       4
       1       3       2       1       3       3       1       1       1       2      14       7      14       8      12      10      10      12       5       3       7
       1       1       3       3       3       2       3       3       1       1       3       2      16       3      10      16       0       6      11      16       4
       3       3       3       1       3       2       2       3       1       1       6       3      15       0      16      14       9       3      10       8       5
       1       3       1       3       3       2       3       3       1       3       6       5       4      13      10       5       5       9       5       7       5
       3       1       3       1       1       2       1       2       3       2       2       8      10      10      16      12      16      10       3       7       5
       2       1       3       2       1       2       1       2       3       3       8      13      12       2      11      16       0      15       1      15       5
       1       1       1       2       1       2       1       1       3       3      15      10       1      13      14       1       7       4       4       3       5
       1       2       2       3       1       2       1       2       1       2       4       2      16       7      15      11      13       3       6      13       5
       3       3       3       3       1       3       1       1       3       2       3       9       2      14      15       2       2       0       4      10       6
       2       2       1       2       1       1       1       2       2       1      14       2       0       1       4       6      13       0       9       2       6
       2       1       3       1       1       1       2       3       3       2      14      10       8      15      14       1      10       9       9       1       6
       3       1       3       3       1       1       3       3       2       1       7       9      12      11      14       5      13       4       1      16       5
       3       2       3       3       2       2       3       3       3       2      12       4       5       3       7      13      13       1       0      16       4
       3       1       2       2       1       1       1       3       1       3       0       3       4       2       5       6       4      10       7       8       4
       3       2       1       1       2       3       3       3       2       3       1       4      15       2      14      15       9       5      14      10       6
       1       1       2       2       3       1       1       2       2       1       9       7       3       1      10       1      11       0      15       7       7
       1       3       3       1       1       1       2       3       3       1      13       8       9      11       5      15      12      10      14      13       6
       2       1       3       1       3       1       1       1       2       1       7       2       3       8       3      14      12       4       2       1       4
       2       3       3       3       3       3       1       1       1       1       8       3      16       9       7      12      10       1       5      15       6
       1       2       1       1       2       3       3       2       3       3       8      10       4       6      15       1      11       6      11       4       4
       3       3       2       1       1       1       3       2       1       1       4      13      12       3      16       1      11      16       1      15       4
       3       2       3       1       1       3       3       1       1       1      13      15      16      12       6       2       9       7      13       4       4
       1       2       2       3       2       2       3       1       3       3       8       7       8       9       5       8       2       6       1      13       4
       1       2       1       2       1       3       2       3       3       2      16       2       3       8       8       4       4       1      14       2       7
       2       3       1       3       3       3       2       1       1       2       4      10       5      10       7      10      10      12       2      14       7
       3       1       1       2       2       1       3       3       1       3       7       1       7       6       6      15      10      16      10       6       5
       1       1       3       3       3       2       3       3       2       1      13       3      10       1      15       1       6       6       8       1       4
       1       3       2       3       1       1       2       3       3       2       4      13       7       3       2       9       4       0      16      11       7
       2       3       3       3       3       1       1       3       1       1       2       2      16      13      12       8       3       0      14       0       4
       2       3       2       1       3       3       3       1       1       1       9      10      12      16       2       0       2      13       6      11       7
       3       1       2       2       1       1       1       1       3       1      16       1      11      10       2      13       6       3      14       0       4
       2       2       2       2       2       1       1       2       2       2      11      14       7      14       8       9       0      14       0       5       7
       1       2       2       2       1       2       3       1       3       2       0      12       6      12       9       5       7      10       7      15       4
       3       2       3       3       2       1       1       1       2       2       2       5      10       2       4      12       2      13       9       6       7
       1       2       2       3       2       2       1       3       1       2       1       5       1       3      10       7      12      10      14       8       5
       2       2       3       1       2       2       1       2       3       2       9       1      10      11       7       3       5       2      13       5       4
       1       3       3       3       3       1       2       3       1       2       6      13       1       1       4       5       7      15       0       1       6
       3       3       2       2       3       1       3       3       2       3      16       5       5      10       6      14      10       3       5       3       7
       3       1       1       1       1       1       2       3       2       1       1      15      16      10      15      10       3       8       4       0       4
       2       2       2       1       3       2       3       1       3       2      16       6      14       2       7      13       5      13       1       0       7
       1       1       1       1       2       3       1       3       1       2      10      11       4       0       3      15       9      14      16      16       7
       3       1       2       1       2       2       3       1       1       3       9       7       8      16      16      10       8      15      12      13       4
       3       1       2       3       1       2       1       3       1       2      13      16      13       7       2      11       6      10      14       8       6
       3       2       2       1       1       3       2       3       1       3      13       0       1       9       4      12       1       6      11       8       7
       2       1       1       1       1       2       1       3       3       3       9       3      11       5       0      11      13       4       7      12       5
       2       3       3       2       2       2       2       1       3       1       9       3      15       0       6       6       5      12      14       3       4
       3       1       2       3       1       2       1       3       1       2      14       2       0       4      16       7      14       8       9       8       7
       1       3       3       3       1       2       3       3       1       3       8       3      12       3       1       9      15       0       3      15       5
       1       2       3       2       2       2       2       2       2       2       6       8      14       1       3      14       8       8       6      14       7
       1       2       3       1       1       1       1       1       3       3       3       0       3      15       6       2       2       7       5       7       5
       2       3       3       2       1       3       1       2       1       3       1       5       3       8      15      13       7       1       4      16       5
       3       2       3       1       2       2       3       2       1       3       8       9       4       4       9      12       3      16       1       2       6
       1       3       1       3       1       2       3       2       3       1       9      12       8      15       1      11      15      16      12       3       4
       2       1       3       1       3       3       1       1       3       2      13       1       6      14       7      16      12      16      16      16       5
       2       1       1       3       2       3       2       1       3       3       1      14      11       9       5       2      11       9       3      12       4
       3       1       3       3       1       2       2       2       2       2      14      12       7       8       5       5       5       7       0       9       6
       2       3       2       1       3       2       2       2       1       2       9       1      13       1       4       4      10       6      12       7       6
       2       3       1       2       1       3       2       3       3       3       5      13       0       0      13      16      14       7       5      12       7
       2       1       1       2       1       1       2       1       1       2      15      11      15       3       3      12       9       6       8      13       4
       1       2       2       3       2       1       3       3       3       3       0      13       0      15       0      13       8      16       7      14       6
       2       1       2       3       1       3       3       3       2       3       8      16       4      10      16       0      12      16       3      10       5
       2       2       3       3       1       2       2       3       3       1      10      16       4       8       8      13       5       9      12       3       7
       1       1       2       3       3       3       3       2       3       3      12       4       6       4       1      12       1       5      15       7       7
       1       2       2       1       2       1       2       2       3       3      10      13       1       0       2      12       3      15       9       3       6
       2       2       2       1       1       2       2       2       3       1      15       5       7       8      16       3       7       5      14      14       7
     125     138     111     172     155     163     175     131     175     154
     297     304     386     338     318     440     365     344     396     392
     423     563     314     800     520     762     730     369     579     609