M+/results-log/S2-10-M+/S2-15-10-2-l-M+.log
CPXPARAM_Read_DataCheck                          1
Found incumbent of value 0.000000 after 0.00 sec. (0.05 ticks)
Tried aggregator 1 time.
MIP Presolve modified 3 coefficients.
Reduced MIP has 231 rows, 2010 columns, and 10040 nonzeros.
Reduced MIP has 2010 binaries, 0 generals, 0 SOSs, and 0 indicators.
Presolve time = 0.01 sec. (3.70 ticks)
Probing time = 0.00 sec. (1.60 ticks)
Tried aggregator 1 time.
Reduced MIP has 231 rows, 2010 columns, and 10040 nonzeros.
Reduced MIP has 2010 binaries, 0 generals, 0 SOSs, and 0 indicators.
Presolve time = 0.00 sec. (4.21 ticks)
Probing time = 0.02 sec. (1.61 ticks)
Clique table members: 3472.
MIP emphasis: balance optimality and feasibility.
MIP search method: dynamic search.
Parallel mode: deterministic, using up to 4 threads.
Root relaxation solution time = 0.00 sec. (6.34 ticks)

        Nodes                                         Cuts/
   Node  Left     Objective  IInf  Best Integer    Best Bound    ItCnt     Gap

*     0+    0                            0.0000    12065.0000              --- 
      0     0     6918.2311    16        0.0000     6918.2311      478     --- 
      0     0     5598.3720   214        0.0000     Cuts: 157     1094     --- 
*     0+    0                         4606.0000     5598.3720            21.55%
      0     0        cutoff           4606.0000     4606.0000     1870    0.00%
Elapsed time = 0.28 sec. (188.61 ticks, tree = 0.01 MB, solutions = 2)

Clique cuts applied:  246
Cover cuts applied:  4
Mixed integer rounding cuts applied:  29
Zero-half cuts applied:  8

Root node processing (before b&c):
  Real time             =    0.30 sec. (188.75 ticks)
Parallel b&c, 4 threads:
  Real time             =    0.00 sec. (0.00 ticks)
  Sync time (average)   =    0.00 sec.
  Wait time (average)   =    0.00 sec.
                          ------------
Total (root+branch&cut) =    0.30 sec. (188.75 ticks)
